AoPS/c5h1231010p6220308.smt2
(set-info :smt-lib-version 2.6)
(set-logic AUFNIRA)
(set-info :source |
Generated by: Mirek Olšák, Mikoláš Janota, Chad E. Brown
Generated on: 2024-04-14
Application: Mathematics challenges involving function synthesis
From a collection by: Vít Musil
Source url: https://prase.cz/library/FunkcionalniRovniceVM/FunkcionalniRovniceVM.pdf
Original source: c5h1231010p6220308
|)
(set-info :license "https://creativecommons.org/licenses/by-nc/4.0/")
(set-info :category "crafted")
(set-info :status sat)

; Header
(declare-fun f (Real) Real)

; Equations
(assert (forall ((x Real) (y Real)) (= (+ (* (+ (f x) (* x y)) (f (- x (* 3.0 y)))) (* (+ (f y) (* x y)) (f (- (* 3.0 x) y)))) (* (f (+ x y)) (f (+ x y))))))

; Find all possible f

(check-sat)
(exit)
(get-model)
